% Logging successfully configured
%%%mzn-stat: initTime=0.005538485
%%%mzn-stat: objective=903
%%%mzn-stat: nodes=317
%%%mzn-stat: restarts=0
%%%mzn-stat: peakDepth=161
%%%mzn-stat: solveTime=0.067922523
%%%mzn-stat: variables=451
%%%mzn-stat: propagators=276
%%%mzn-stat: failures=125
%%%mzn-stat: propagations=5803
%%%mzn-stat: nogoods=125
%%%mzn-stat: numAtomicConstraintsPropagated=0
%%%mzn-stat: circuitNumber1PropagationsTotal=780
%%%mzn-stat: circuitNumber1CircuitConflicts=72
%%%mzn-stat: circuitNumber1AlldiffConflicts=5
%%%mzn-stat: circuitNumber1TotalFixedEdgesAtConflict=3023
%%%mzn-stat: circuitNumber1NumberOfConflicts=77
%%%mzn-stat: circuitNumber1GacPrunings=1928
%%%mzn-stat: circuitNumber1PropagationsThatGacPruned=440
%%%mzn-stat: circuitNumber1TotalPruningHallSetSize=10596
%%%mzn-stat: circuitNumber1NumberOfPruningExplanations=1928
%%%mzn-stat: circuitNumber1MaxPruningHallSetSize=38
%%%mzn-stat: circuitNumber1TotalSccSizeAtPruning=3813
%%%mzn-stat: circuitNumber1NumberOfSccPruningCalls=440
%%%mzn-stat: circuitNumber1TotalVarsInvolvedInPruning=1608
%%%mzn-stat: circuitNumber1MaxValuesPrunedFromSingleVar=3
%%%mzn-stat: circuitNumber1HallCircuitChecks=2527
%%%mzn-stat: circuitNumber1HallCircuitPrunings=25
%%%mzn-stat: circuitNumber1CircuitPreventPrunings=405
%%%mzn-stat: AverageConflictSize=20.992
%%%mzn-stat: NumUnitNogoodsLearned=0
%%%mzn-stat: AverageLearnedNogoodLength=12.184
%%%mzn-stat: AverageBacktrackAmount=0
%%%mzn-stat: AverageLbd=7.008
%%%mzn-stat: 2AutonomousSearchNumBackupCalled=149
%%%mzn-stat: 2AutonomousSearchNumPredicatesRemoved=0
%%%mzn-stat: 2AutonomousSearchNumCalls=150
%%%mzn-stat: 2AutonomousSearchNumPredicatesAdded=2165
%%%mzn-stat: 2AutonomousSearchAverageSizeOfHeap=14.433333333333334
%%%mzn-stat: 2AutonomousSearchNumAssignedPredicatesEncountered=2165
%%%mzn-stat-end
maxleg = 903;
succ = array1d(1..50,[2, 15, 12, 9, 19, 40, 45, 47, 35, 31, 18, 17, 4, 34, 25, 8, 30, 27, 46, 16, 33, 26, 38, 39, 10, 20, 42, 24, 13, 28, 22, 41, 36, 5, 14, 32, 21, 11, 6, 43, 48, 29, 44, 50, 23, 1, 49, 3, 37, 7]);
% time elapsed: 20.45 s
----------
%%%mzn-stat: initTime=0.005538485
%%%mzn-stat: objective=666
%%%mzn-stat: nodes=6185
%%%mzn-stat: restarts=0
%%%mzn-stat: peakDepth=161
%%%mzn-stat: solveTime=2.998646019
%%%mzn-stat: variables=451
%%%mzn-stat: propagators=276
%%%mzn-stat: failures=4651
%%%mzn-stat: propagations=215364
%%%mzn-stat: nogoods=4651
%%%mzn-stat: numAtomicConstraintsPropagated=0
%%%mzn-stat: circuitNumber1PropagationsTotal=31429
%%%mzn-stat: circuitNumber1CircuitConflicts=3123
%%%mzn-stat: circuitNumber1AlldiffConflicts=221
%%%mzn-stat: circuitNumber1TotalFixedEdgesAtConflict=134203
%%%mzn-stat: circuitNumber1NumberOfConflicts=3344
%%%mzn-stat: circuitNumber1GacPrunings=68559
%%%mzn-stat: circuitNumber1PropagationsThatGacPruned=18743
%%%mzn-stat: circuitNumber1TotalPruningHallSetSize=305426
%%%mzn-stat: circuitNumber1NumberOfPruningExplanations=68559
%%%mzn-stat: circuitNumber1MaxPruningHallSetSize=47
%%%mzn-stat: circuitNumber1TotalSccSizeAtPruning=133895
%%%mzn-stat: circuitNumber1NumberOfSccPruningCalls=18743
%%%mzn-stat: circuitNumber1TotalVarsInvolvedInPruning=58634
%%%mzn-stat: circuitNumber1MaxValuesPrunedFromSingleVar=4
%%%mzn-stat: circuitNumber1HallCircuitChecks=84122
%%%mzn-stat: circuitNumber1HallCircuitPrunings=1327
%%%mzn-stat: circuitNumber1CircuitPreventPrunings=15668
%%%mzn-stat: AverageConflictSize=27.890991184691465
%%%mzn-stat: NumUnitNogoodsLearned=0
%%%mzn-stat: AverageLearnedNogoodLength=16.05396688884111
%%%mzn-stat: AverageBacktrackAmount=0
%%%mzn-stat: AverageLbd=7.660718125134379
%%%mzn-stat: 2AutonomousSearchNumBackupCalled=289
%%%mzn-stat: 2AutonomousSearchNumPredicatesRemoved=0
%%%mzn-stat: 2AutonomousSearchNumCalls=291
%%%mzn-stat: 2AutonomousSearchNumPredicatesAdded=4954
%%%mzn-stat: 2AutonomousSearchAverageSizeOfHeap=17.195876288659793
%%%mzn-stat: 2AutonomousSearchNumAssignedPredicatesEncountered=5004
%%%mzn-stat-end
maxleg = 666;
succ = array1d(1..50,[2, 36, 12, 9, 34, 39, 44, 16, 19, 22, 18, 17, 4, 50, 25, 26, 30, 27, 46, 15, 37, 31, 38, 41, 10, 20, 42, 24, 13, 28, 23, 1, 21, 35, 14, 33, 47, 11, 48, 6, 32, 29, 40, 43, 7, 5, 49, 3, 8, 45]);
% time elapsed: 23.35 s
----------
==========
% time elapsed: 27.00 s
%%%mzn-stat: initTime=0.005538485
%%%mzn-stat: objective=666
%%%mzn-stat: nodes=13304
%%%mzn-stat: restarts=0
%%%mzn-stat: peakDepth=161
%%%mzn-stat: solveTime=6.641234354
%%%mzn-stat: variables=451
%%%mzn-stat: propagators=276
%%%mzn-stat: failures=9933
%%%mzn-stat: propagations=445238
%%%mzn-stat: nogoods=9933
%%%mzn-stat: numAtomicConstraintsPropagated=0
%%%mzn-stat: circuitNumber1PropagationsTotal=69944
%%%mzn-stat: circuitNumber1CircuitConflicts=6752
%%%mzn-stat: circuitNumber1AlldiffConflicts=315
%%%mzn-stat: circuitNumber1TotalFixedEdgesAtConflict=289991
%%%mzn-stat: circuitNumber1NumberOfConflicts=7067
%%%mzn-stat: circuitNumber1GacPrunings=134195
%%%mzn-stat: circuitNumber1PropagationsThatGacPruned=42356
%%%mzn-stat: circuitNumber1TotalPruningHallSetSize=500852
%%%mzn-stat: circuitNumber1NumberOfPruningExplanations=134195
%%%mzn-stat: circuitNumber1MaxPruningHallSetSize=48
%%%mzn-stat: circuitNumber1TotalSccSizeAtPruning=258408
%%%mzn-stat: circuitNumber1NumberOfSccPruningCalls=42356
%%%mzn-stat: circuitNumber1TotalVarsInvolvedInPruning=116707
%%%mzn-stat: circuitNumber1MaxValuesPrunedFromSingleVar=4
%%%mzn-stat: circuitNumber1HallCircuitChecks=189389
%%%mzn-stat: circuitNumber1HallCircuitPrunings=6618
%%%mzn-stat: circuitNumber1CircuitPreventPrunings=32900
%%%mzn-stat: AverageConflictSize=25.0434913923286
%%%mzn-stat: NumUnitNogoodsLearned=1
%%%mzn-stat: AverageLearnedNogoodLength=15.696164300815463
%%%mzn-stat: AverageBacktrackAmount=0
%%%mzn-stat: AverageLbd=7.4009866102889355
%%%mzn-stat: 2AutonomousSearchNumBackupCalled=289
%%%mzn-stat: 2AutonomousSearchNumPredicatesRemoved=0
%%%mzn-stat: 2AutonomousSearchNumCalls=291
%%%mzn-stat: 2AutonomousSearchNumPredicatesAdded=7886
%%%mzn-stat: 2AutonomousSearchAverageSizeOfHeap=17.195876288659793
%%%mzn-stat: 2AutonomousSearchNumAssignedPredicatesEncountered=5004
%%%mzn-stat-end
